n_machines = 3;
n_resources = 5;
n_jobs = 25;
horizon = 13754;
LB = 4584;
n_jobs_per_resource = [5, 5, 5, 5, 5];
duration = [889, 64, 999, 157, 988, 634, 26, 249, 566, 939, 724, 855, 259, 667, 794, 687, 354, 741, 192, 446, 664, 924, 266, 344, 326]